(set-info :smt-lib-version 2.6)
(set-logic QF_ALIA)
(set-info :source |
Generated by the tool Ultimate Automizer [1,2] which implements
an automata theoretic approach [3] to software verification.

This SMT script belongs to a set of SMT scripts that was generated by
applying Ultimate Automizer to benchmarks [4] from the SV-COMP 2023 [5,6].
This script may not contain all SMT commands that Ultimate Automizer
issued. In order to meet the restrictions for SMT-COMP benchmarks 
we dropped the commands for getting values (resp. models), 
unsatisfiable cores, and interpolants.

2023-03-21, Matthias Heizmann (heizmann@informatik.uni-freiburg.de)

[1] https://ultimate.informatik.uni-freiburg.de/automizer/
[2] Matthias Heizmann, Max Barth, Daniel Dietsch, Leonard Fichtner,
     Jochen Hoenicke, Dominik Klumpp, Mehdi Naouar, Tanja Schindler,
     Frank Schüssele, Andreas Podelski: Ultimate Automizer and the
     CommuHash Normal Form (Competition Contribution). TACAS 2023
[3] Matthias Heizmann, Jochen Hoenicke, Andreas Podelski: Software Model
     Checking for People Who Love Automata. CAV 2013
[4] https://github.com/sosy-lab/sv-benchmarks
[5] Dirk Beyer: Competition on Software Verification and
     Witness Validation: SV-COMP 2023.  TACAS 2023
[6] https://sv-comp.sosy-lab.org/2023/
|)
(set-info :license "https://creativecommons.org/licenses/by/4.0/")
(set-info :category "industrial")
(set-info :status unknown)
(declare-fun |#funAddr~thr1.base| () Int)
(declare-fun |#funAddr~thr1.offset| () Int)
(declare-fun |#funAddr~thr2.base| () Int)
(declare-fun |#funAddr~thr2.offset| () Int)
(declare-fun |#funAddr~main_thread.base| () Int)
(declare-fun |#funAddr~main_thread.offset| () Int)
(declare-fun ~unnamed0~0~P_ALL () Int)
(declare-fun ~unnamed0~0~P_PID () Int)
(declare-fun ~unnamed0~0~P_PGID () Int)
(assert (and (= (+ |#funAddr~thr1.base| 1) 0) (= |#funAddr~thr1.offset| 0)))
(assert (and (= |#funAddr~thr2.offset| 1) (= (+ 1 |#funAddr~thr2.base|) 0)))
(assert (and (= (+ |#funAddr~main_thread.base| 1) 0) (= |#funAddr~main_thread.offset| 2)))
(assert (= ~unnamed0~0~P_ALL 0))
(assert (= ~unnamed0~0~P_PID 1))
(assert (= 2 ~unnamed0~0~P_PGID))
(declare-fun |v_#memory_int_65_const_-458059119| () (Array Int (Array Int Int)))
(declare-fun |v_ULTIMATE.start_main_~#__CS_cp_x~0#1.base_8_const_1935253330| () Int)
(declare-fun |v_ULTIMATE.start_main_~#__CS_cp_x~0#1.offset_8_const_952251088| () Int)
(declare-fun |v_~#x~0.base_4_const_-402024745| () Int)
(declare-fun |v_~#x~0.offset_4_const_1100090901| () Int)
(declare-fun |v_ULTIMATE.start_main_~#__CS_cp_y~0#1.base_8_const_2064333363| () Int)
(declare-fun |v_ULTIMATE.start_main_~#__CS_cp_y~0#1.offset_8_const_446818673| () Int)
(declare-fun |v_~#y~0.base_4_const_-598678024| () Int)
(declare-fun |v_~#y~0.offset_4_const_1229302006| () Int)
(declare-fun |v_ULTIMATE.start_main_~#__CS_cp_b1~0#1.base_8_const_1263505027| () Int)
(declare-fun |v_ULTIMATE.start_main_~#__CS_cp_b1~0#1.offset_8_const_-344534591| () Int)
(declare-fun |v_~#b1~0.base_4_const_299965258| () Int)
(declare-fun |v_~#b1~0.offset_4_const_1400404424| () Int)
(declare-fun |v_ULTIMATE.start_main_~#__CS_cp_b2~0#1.base_8_const_1392585060| () Int)
(declare-fun |v_ULTIMATE.start_main_~#__CS_cp_b2~0#1.offset_8_const_-850098078| () Int)
(declare-fun |v_~#b2~0.base_4_const_103311979| () Int)
(declare-fun |v_~#b2~0.offset_4_const_1529484457| () Int)
(declare-fun |v_ULTIMATE.start_main_~#__CS_cp_X~0#1.base_8_const_2099432306| () Int)
(declare-fun |v_ULTIMATE.start_main_~#__CS_cp_X~0#1.offset_8_const_-49748240| () Int)
(declare-fun |v_~#X~0.base_4_const_1591442167| () Int)
(declare-fun |v_~#X~0.offset_4_const_1264548405| () Int)
(declare-fun |v_~#__CS_thread_born_round~0.base_4_const_1720302585| () Int)
(declare-fun |v_~#__CS_thread_born_round~0.offset_4_const_544850615| () Int)
(declare-fun v_~__CS_round~0_21_const_-563051817 () Int)
(declare-fun |v_~#__CS_thread_status~0.base_14_const_-1500884620| () Int)
(declare-fun |v_~#__CS_thread_status~0.offset_14_const_679055606| () Int)
(declare-fun v_~__THREAD_RUNNING~0_4_const_278392745 () Int)
(declare-fun |v_~#__CS_thread_allocated~0.base_4_const_1055191040| () Int)
(declare-fun |v_~#__CS_thread_allocated~0.offset_4_const_1454422302| () Int)
(declare-fun |v_#memory_int_52_const_-458059085| () (Array Int (Array Int Int)))
(declare-fun |v_#memory_$Pointer$.offset_63_const_1565750336| () (Array Int (Array Int Int)))
(declare-fun |v_#memory_$Pointer$.offset_64_const_1565750337| () (Array Int (Array Int Int)))
(declare-fun |v_#memory_$Pointer$.offset_66_const_1565750343| () (Array Int (Array Int Int)))
(declare-fun |v_#memory_$Pointer$.offset_67_const_1565750340| () (Array Int (Array Int Int)))
(declare-fun |v_#memory_$Pointer$.offset_52_const_1565750368| () (Array Int (Array Int Int)))
(declare-fun |v_#memory_$Pointer$.offset_53_const_1565750369| () (Array Int (Array Int Int)))
(declare-fun v_~__CS_thread_index~0_11_const_-271169767 () Int)
(declare-fun |v_#memory_$Pointer$.offset_44_const_1565750279| () (Array Int (Array Int Int)))
(declare-fun |v_#memory_$Pointer$.offset_45_const_1565750276| () (Array Int (Array Int Int)))
(declare-fun |v_#memory_$Pointer$.offset_46_const_1565750277| () (Array Int (Array Int Int)))
(declare-fun v_~__CS_thread~0.offset_13_const_-1391952882 () (Array Int Int))
(declare-fun v_~__CS_thread~0.offset_14_const_-1391952881 () (Array Int Int))
(declare-fun |v_#memory_$Pointer$.base_52_const_1527225766| () (Array Int (Array Int Int)))
(declare-fun |v_#memory_$Pointer$.base_53_const_1527225767| () (Array Int (Array Int Int)))
(declare-fun |v_#memory_$Pointer$.base_46_const_1527225675| () (Array Int (Array Int Int)))
(declare-fun |v_#memory_$Pointer$.base_47_const_1527225672| () (Array Int (Array Int Int)))
(declare-fun |v_#memory_$Pointer$.offset_51_const_1565750371| () (Array Int (Array Int Int)))
(declare-fun |v_#memory_$Pointer$.base_44_const_1527225669| () (Array Int (Array Int Int)))
(declare-fun |v_#memory_$Pointer$.base_45_const_1527225674| () (Array Int (Array Int Int)))
(declare-fun |v_#memory_$Pointer$.offset_43_const_1565750278| () (Array Int (Array Int Int)))
(declare-fun |v_~#__CS_thread_lockedon~0.base_8_const_-898830650| () Int)
(declare-fun |v_~#__CS_thread_lockedon~0.offset_8_const_541011268| () Int)
(declare-fun |v_#memory_int_66_const_-458059114| () (Array Int (Array Int Int)))
(declare-fun |v_#memory_$Pointer$.base_50_const_1527225760| () (Array Int (Array Int Int)))
(declare-fun |v_#memory_$Pointer$.base_51_const_1527225761| () (Array Int (Array Int Int)))
(declare-fun |v_#memory_$Pointer$.base_43_const_1527225668| () (Array Int (Array Int Int)))
(declare-fun |v_#memory_int_67_const_-458059113| () (Array Int (Array Int Int)))
(declare-fun |v_#memory_$Pointer$.offset_47_const_1565750282| () (Array Int (Array Int Int)))
(declare-fun |v_#memory_$Pointer$.offset_65_const_1565750342| () (Array Int (Array Int Int)))
(declare-fun |v_#memory_$Pointer$.offset_54_const_1565750374| () (Array Int (Array Int Int)))
(declare-fun |v_#memory_$Pointer$.base_62_const_1527225729| () (Array Int (Array Int Int)))
(declare-fun |v_#memory_$Pointer$.base_63_const_1527225734| () (Array Int (Array Int Int)))
(declare-fun |v_#memory_$Pointer$.base_64_const_1527225735| () (Array Int (Array Int Int)))
(declare-fun |v_#memory_$Pointer$.base_42_const_1527225671| () (Array Int (Array Int Int)))
(declare-fun |v_#memory_$Pointer$.offset_42_const_1565750273| () (Array Int (Array Int Int)))
(declare-fun |v_#memory_$Pointer$.base_61_const_1527225728| () (Array Int (Array Int Int)))
(declare-fun |v_#memory_int_68_const_-458059116| () (Array Int (Array Int Int)))
(declare-fun |v_ULTIMATE.start_main_#t~mem74#1_2_const_653155892| () Int)
(declare-fun |v_#memory_int_69_const_-458059115| () (Array Int (Array Int Int)))
(declare-fun |v_#memory_$Pointer$.base_49_const_1527225678| () (Array Int (Array Int Int)))
(declare-fun |v_#memory_$Pointer$.base_65_const_1527225732| () (Array Int (Array Int Int)))
(declare-fun |v_#memory_$Pointer$.base_66_const_1527225733| () (Array Int (Array Int Int)))
(declare-fun |v_#memory_$Pointer$.offset_62_const_1565750339| () (Array Int (Array Int Int)))
(declare-fun |v_#memory_$Pointer$.base_54_const_1527225764| () (Array Int (Array Int Int)))
(declare-fun |v_#memory_int_77_const_-458059018| () (Array Int (Array Int Int)))
(declare-fun |v_ULTIMATE.start_main_~#__CS_cp___CS_thread_status~0#1.base_12_const_1164317145| () Int)
(declare-fun |v_ULTIMATE.start_main_~#__CS_cp___CS_thread_status~0#1.offset_12_const_2137060507| () Int)
(declare-fun |v_#memory_int_70_const_-458059025| () (Array Int (Array Int Int)))
(declare-fun |v_ULTIMATE.start_main_~#__CS_cp___CS_thread_lockedon~0#1.base_12_const_407077506| () Int)
(declare-fun |v_ULTIMATE.start_main_~#__CS_cp___CS_thread_lockedon~0#1.offset_12_const_160929540| () Int)
(declare-fun |v_#memory_$Pointer$.base_48_const_1527225673| () (Array Int (Array Int Int)))
(declare-fun |v_#memory_$Pointer$.offset_49_const_1565750280| () (Array Int (Array Int Int)))
(declare-fun |v_#memory_$Pointer$.offset_50_const_1565750370| () (Array Int (Array Int Int)))
(declare-fun v_~__CS_thread~0.base_13_const_227311360 () (Array Int Int))
(declare-fun v_~__CS_thread~0.base_14_const_227311361 () (Array Int Int))
(declare-fun |v_#memory_$Pointer$.offset_61_const_1565750338| () (Array Int (Array Int Int)))
(declare-fun |v_#memory_$Pointer$.base_67_const_1527225738| () (Array Int (Array Int Int)))
(declare-fun |v_#memory_$Pointer$.offset_48_const_1565750283| () (Array Int (Array Int Int)))
(assert (let ((.cse6 (select |v_#memory_$Pointer$.offset_52_const_1565750368| |v_~#y~0.base_4_const_-598678024|)) (.cse11 (select |v_#memory_$Pointer$.base_46_const_1527225675| |v_~#X~0.base_4_const_1591442167|)) (.cse13 (select |v_#memory_int_66_const_-458059114| |v_~#__CS_thread_lockedon~0.base_8_const_-898830650|)) (.cse7 (select |v_#memory_$Pointer$.offset_46_const_1565750277| |v_~#X~0.base_4_const_1591442167|)) (.cse0 (select |v_#memory_$Pointer$.offset_64_const_1565750337| |v_~#__CS_thread_status~0.base_14_const_-1500884620|)) (.cse4 (select |v_#memory_$Pointer$.offset_66_const_1565750343| |v_~#__CS_thread_status~0.base_14_const_-1500884620|)) (.cse19 (select |v_#memory_$Pointer$.offset_65_const_1565750342| |v_~#__CS_thread_status~0.base_14_const_-1500884620|)) (.cse24 (select |v_#memory_$Pointer$.base_63_const_1527225734| |v_~#__CS_thread_status~0.base_14_const_-1500884620|)) (.cse9 (select |v_#memory_$Pointer$.base_52_const_1527225766| |v_~#y~0.base_4_const_-598678024|)) (.cse26 (select |v_#memory_$Pointer$.base_62_const_1527225729| |v_~#__CS_thread_status~0.base_14_const_-1500884620|)) (.cse17 (select |v_#memory_int_67_const_-458059113| |v_~#__CS_thread_lockedon~0.base_8_const_-898830650|)) (.cse29 (select |v_#memory_int_68_const_-458059116| |v_~#__CS_thread_lockedon~0.base_8_const_-898830650|)) (.cse16 (select |v_#memory_$Pointer$.base_50_const_1527225760| |v_~#b1~0.base_4_const_299965258|)) (.cse2 (select |v_#memory_$Pointer$.offset_63_const_1565750336| |v_~#__CS_thread_status~0.base_14_const_-1500884620|)) (.cse25 (+ 5 |v_~#__CS_thread_status~0.offset_14_const_679055606|)) (.cse1 (+ 7 |v_~#__CS_thread_status~0.offset_14_const_679055606|)) (.cse23 (+ 6 |v_~#__CS_thread_status~0.offset_14_const_679055606|)) (.cse37 (select |v_#memory_$Pointer$.base_54_const_1527225764| |v_~#x~0.base_4_const_-402024745|)) (.cse8 (+ 8 |v_~#X~0.offset_4_const_1264548405|)) (.cse10 (+ |v_~#X~0.offset_4_const_1264548405| 4)) (.cse12 (+ 8 |v_~#y~0.offset_4_const_1229302006|)) (.cse5 (+ |v_~#y~0.offset_4_const_1229302006| 4)) (.cse22 (+ 8 |v_~#x~0.offset_4_const_1100090901|)) (.cse74 (select |v_#memory_$Pointer$.base_48_const_1527225673| |v_~#b2~0.base_4_const_103311979|)) (.cse33 (+ 8 |v_~#b1~0.offset_4_const_1400404424|)) (.cse21 (select |v_#memory_$Pointer$.offset_54_const_1565750374| |v_~#x~0.base_4_const_-402024745|)) (.cse47 (+ |v_~#x~0.offset_4_const_1100090901| 4)) (.cse14 (+ 64 |v_~#__CS_thread_lockedon~0.offset_8_const_541011268|)) (.cse49 (+ 64 |v_ULTIMATE.start_main_~#__CS_cp___CS_thread_lockedon~0#1.offset_12_const_160929540|)) (.cse18 (+ 40 |v_~#__CS_thread_lockedon~0.offset_8_const_541011268|)) (.cse51 (+ 40 |v_ULTIMATE.start_main_~#__CS_cp___CS_thread_lockedon~0#1.offset_12_const_160929540|)) (.cse30 (+ 56 |v_~#__CS_thread_lockedon~0.offset_8_const_541011268|)) (.cse53 (+ 56 |v_ULTIMATE.start_main_~#__CS_cp___CS_thread_lockedon~0#1.offset_12_const_160929540|)) (.cse32 (+ 32 |v_~#__CS_thread_lockedon~0.offset_8_const_541011268|)) (.cse55 (+ 32 |v_ULTIMATE.start_main_~#__CS_cp___CS_thread_lockedon~0#1.offset_12_const_160929540|)) (.cse58 (+ |v_ULTIMATE.start_main_~#__CS_cp___CS_thread_lockedon~0#1.offset_12_const_160929540| 48)) (.cse39 (+ |v_~#__CS_thread_lockedon~0.offset_8_const_541011268| 24)) (.cse59 (+ |v_ULTIMATE.start_main_~#__CS_cp___CS_thread_lockedon~0#1.offset_12_const_160929540| 24)) (.cse75 (select |v_#memory_$Pointer$.offset_50_const_1565750370| |v_~#b1~0.base_4_const_299965258|)) (.cse15 (+ |v_~#b1~0.offset_4_const_1400404424| 4)) (.cse35 (select |v_#memory_$Pointer$.base_65_const_1527225732| |v_~#__CS_thread_status~0.base_14_const_-1500884620|)) (.cse27 (select |v_#memory_$Pointer$.base_64_const_1527225735| |v_~#__CS_thread_status~0.base_14_const_-1500884620|)) (.cse20 (+ |v_~#__CS_thread_status~0.offset_14_const_679055606| 4)) (.cse36 (select |v_#memory_$Pointer$.offset_62_const_1565750339| |v_~#__CS_thread_status~0.base_14_const_-1500884620|)) (.cse28 (+ |v_~#__CS_thread_status~0.offset_14_const_679055606| 8)) (.cse40 (select |v_#memory_int_70_const_-458059025| |v_~#__CS_thread_lockedon~0.base_8_const_-898830650|)) (.cse31 (select |v_#memory_int_69_const_-458059115| |v_~#__CS_thread_lockedon~0.base_8_const_-898830650|)) (.cse57 (+ |v_~#__CS_thread_lockedon~0.offset_8_const_541011268| 48)) (.cse34 (select |v_#memory_$Pointer$.base_66_const_1527225733| |v_~#__CS_thread_status~0.base_14_const_-1500884620|)) (.cse3 (+ 3 |v_~#__CS_thread_status~0.offset_14_const_679055606|)) (.cse68 (+ 4 |v_~#b2~0.offset_4_const_1529484457|)) (.cse82 (select |v_#memory_$Pointer$.offset_48_const_1565750283| |v_~#b2~0.base_4_const_103311979|)) (.cse67 (+ 8 |v_~#b2~0.offset_4_const_1529484457|))) (and (= (store |v_#memory_$Pointer$.offset_64_const_1565750337| |v_~#__CS_thread_status~0.base_14_const_-1500884620| (store .cse0 .cse1 (select .cse2 .cse1))) |v_#memory_$Pointer$.offset_63_const_1565750336|) (= |v_#memory_$Pointer$.offset_66_const_1565750343| (store |v_#memory_$Pointer$.offset_67_const_1565750340| |v_~#__CS_thread_status~0.base_14_const_-1500884620| (store (select |v_#memory_$Pointer$.offset_67_const_1565750340| |v_~#__CS_thread_status~0.base_14_const_-1500884620|) .cse3 (select .cse4 .cse3)))) (= (store |v_#memory_$Pointer$.offset_53_const_1565750369| |v_~#y~0.base_4_const_-598678024| (store (select |v_#memory_$Pointer$.offset_53_const_1565750369| |v_~#y~0.base_4_const_-598678024|) .cse5 (select .cse6 .cse5))) |v_#memory_$Pointer$.offset_52_const_1565750368|) (= v_~__CS_thread_index~0_11_const_-271169767 0) (= (store |v_#memory_$Pointer$.offset_45_const_1565750276| |v_~#__CS_thread_born_round~0.base_4_const_1720302585| (store (select |v_#memory_$Pointer$.offset_45_const_1565750276| |v_~#__CS_thread_born_round~0.base_4_const_1720302585|) |v_~#__CS_thread_born_round~0.offset_4_const_544850615| (select (select |v_#memory_$Pointer$.offset_44_const_1565750279| |v_~#__CS_thread_born_round~0.base_4_const_1720302585|) |v_~#__CS_thread_born_round~0.offset_4_const_544850615|))) |v_#memory_$Pointer$.offset_44_const_1565750279|) (= (store |v_#memory_$Pointer$.offset_46_const_1565750277| |v_~#X~0.base_4_const_1591442167| (store .cse7 .cse8 (select (select |v_#memory_$Pointer$.offset_45_const_1565750276| |v_~#X~0.base_4_const_1591442167|) .cse8))) |v_#memory_$Pointer$.offset_45_const_1565750276|) (= v_~__CS_thread~0.offset_13_const_-1391952882 (store v_~__CS_thread~0.offset_14_const_-1391952881 0 |#funAddr~main_thread.offset|)) (= (store |v_#memory_$Pointer$.base_53_const_1527225767| |v_~#y~0.base_4_const_-598678024| (store (select |v_#memory_$Pointer$.base_53_const_1527225767| |v_~#y~0.base_4_const_-598678024|) .cse5 (select .cse9 .cse5))) |v_#memory_$Pointer$.base_52_const_1527225766|) (= |v_#memory_$Pointer$.base_46_const_1527225675| (store |v_#memory_$Pointer$.base_47_const_1527225672| |v_~#X~0.base_4_const_1591442167| (store (select |v_#memory_$Pointer$.base_47_const_1527225672| |v_~#X~0.base_4_const_1591442167|) .cse10 (select .cse11 .cse10)))) (= (store |v_#memory_$Pointer$.offset_52_const_1565750368| |v_~#y~0.base_4_const_-598678024| (store .cse6 .cse12 (select (select |v_#memory_$Pointer$.offset_51_const_1565750371| |v_~#y~0.base_4_const_-598678024|) .cse12))) |v_#memory_$Pointer$.offset_51_const_1565750371|) (= (store |v_#memory_$Pointer$.base_45_const_1527225674| |v_~#__CS_thread_born_round~0.base_4_const_1720302585| (store (select |v_#memory_$Pointer$.base_45_const_1527225674| |v_~#__CS_thread_born_round~0.base_4_const_1720302585|) |v_~#__CS_thread_born_round~0.offset_4_const_544850615| (select (select |v_#memory_$Pointer$.base_44_const_1527225669| |v_~#__CS_thread_born_round~0.base_4_const_1720302585|) |v_~#__CS_thread_born_round~0.offset_4_const_544850615|))) |v_#memory_$Pointer$.base_44_const_1527225669|) (= (store |v_#memory_$Pointer$.offset_44_const_1565750279| |v_~#__CS_thread_status~0.base_14_const_-1500884620| (store (select |v_#memory_$Pointer$.offset_44_const_1565750279| |v_~#__CS_thread_status~0.base_14_const_-1500884620|) |v_~#__CS_thread_status~0.offset_14_const_679055606| (select (select |v_#memory_$Pointer$.offset_43_const_1565750278| |v_~#__CS_thread_status~0.base_14_const_-1500884620|) |v_~#__CS_thread_status~0.offset_14_const_679055606|))) |v_#memory_$Pointer$.offset_43_const_1565750278|) (= |v_#memory_int_65_const_-458059119| (store |v_#memory_int_66_const_-458059114| |v_~#__CS_thread_lockedon~0.base_8_const_-898830650| (store .cse13 .cse14 (select (select |v_#memory_int_65_const_-458059119| |v_~#__CS_thread_lockedon~0.base_8_const_-898830650|) .cse14)))) (= (store |v_#memory_$Pointer$.base_51_const_1527225761| |v_~#b1~0.base_4_const_299965258| (store (select |v_#memory_$Pointer$.base_51_const_1527225761| |v_~#b1~0.base_4_const_299965258|) .cse15 (select .cse16 .cse15))) |v_#memory_$Pointer$.base_50_const_1527225760|) (= |v_#memory_$Pointer$.base_45_const_1527225674| (store |v_#memory_$Pointer$.base_46_const_1527225675| |v_~#X~0.base_4_const_1591442167| (store .cse11 .cse8 (select (select |v_#memory_$Pointer$.base_45_const_1527225674| |v_~#X~0.base_4_const_1591442167|) .cse8)))) (= (store |v_#memory_$Pointer$.base_44_const_1527225669| |v_~#__CS_thread_status~0.base_14_const_-1500884620| (store (select |v_#memory_$Pointer$.base_44_const_1527225669| |v_~#__CS_thread_status~0.base_14_const_-1500884620|) |v_~#__CS_thread_status~0.offset_14_const_679055606| (select (select |v_#memory_$Pointer$.base_43_const_1527225668| |v_~#__CS_thread_status~0.base_14_const_-1500884620|) |v_~#__CS_thread_status~0.offset_14_const_679055606|))) |v_#memory_$Pointer$.base_43_const_1527225668|) (= (store |v_#memory_int_67_const_-458059113| |v_~#__CS_thread_lockedon~0.base_8_const_-898830650| (store .cse17 .cse18 (select .cse13 .cse18))) |v_#memory_int_66_const_-458059114|) (= (store |v_#memory_$Pointer$.offset_47_const_1565750282| |v_~#X~0.base_4_const_1591442167| (store (select |v_#memory_$Pointer$.offset_47_const_1565750282| |v_~#X~0.base_4_const_1591442167|) .cse10 (select .cse7 .cse10))) |v_#memory_$Pointer$.offset_46_const_1565750277|) (= (store |v_#memory_$Pointer$.offset_65_const_1565750342| |v_~#__CS_thread_status~0.base_14_const_-1500884620| (store .cse19 .cse20 (select .cse0 .cse20))) |v_#memory_$Pointer$.offset_64_const_1565750337|) (= (store |v_#memory_$Pointer$.offset_54_const_1565750374| |v_~#x~0.base_4_const_-402024745| (store .cse21 .cse22 (select (select |v_#memory_$Pointer$.offset_53_const_1565750369| |v_~#x~0.base_4_const_-402024745|) .cse22))) |v_#memory_$Pointer$.offset_53_const_1565750369|) (= (store |v_#memory_$Pointer$.offset_66_const_1565750343| |v_~#__CS_thread_status~0.base_14_const_-1500884620| (store .cse4 .cse23 (select .cse19 .cse23))) |v_#memory_$Pointer$.offset_65_const_1565750342|) (= (store |v_#memory_$Pointer$.base_63_const_1527225734| |v_~#__CS_thread_status~0.base_14_const_-1500884620| (store .cse24 .cse25 (select .cse26 .cse25))) |v_#memory_$Pointer$.base_62_const_1527225729|) (= (store |v_#memory_$Pointer$.base_64_const_1527225735| |v_~#__CS_thread_status~0.base_14_const_-1500884620| (store .cse27 .cse1 (select .cse24 .cse1))) |v_#memory_$Pointer$.base_63_const_1527225734|) (= (store |v_#memory_$Pointer$.base_43_const_1527225668| |v_~#__CS_thread_allocated~0.base_4_const_1055191040| (store (select |v_#memory_$Pointer$.base_43_const_1527225668| |v_~#__CS_thread_allocated~0.base_4_const_1055191040|) |v_~#__CS_thread_allocated~0.offset_4_const_1454422302| (select (select |v_#memory_$Pointer$.base_42_const_1527225671| |v_~#__CS_thread_allocated~0.base_4_const_1055191040|) |v_~#__CS_thread_allocated~0.offset_4_const_1454422302|))) |v_#memory_$Pointer$.base_42_const_1527225671|) (= (store |v_#memory_$Pointer$.offset_43_const_1565750278| |v_~#__CS_thread_allocated~0.base_4_const_1055191040| (store (select |v_#memory_$Pointer$.offset_43_const_1565750278| |v_~#__CS_thread_allocated~0.base_4_const_1055191040|) |v_~#__CS_thread_allocated~0.offset_4_const_1454422302| (select (select |v_#memory_$Pointer$.offset_42_const_1565750273| |v_~#__CS_thread_allocated~0.base_4_const_1055191040|) |v_~#__CS_thread_allocated~0.offset_4_const_1454422302|))) |v_#memory_$Pointer$.offset_42_const_1565750273|) (= |v_#memory_$Pointer$.base_51_const_1527225761| (store |v_#memory_$Pointer$.base_52_const_1527225766| |v_~#y~0.base_4_const_-598678024| (store .cse9 .cse12 (select (select |v_#memory_$Pointer$.base_51_const_1527225761| |v_~#y~0.base_4_const_-598678024|) .cse12)))) (= (store |v_#memory_$Pointer$.base_62_const_1527225729| |v_~#__CS_thread_status~0.base_14_const_-1500884620| (store .cse26 .cse28 (select (select |v_#memory_$Pointer$.base_61_const_1527225728| |v_~#__CS_thread_status~0.base_14_const_-1500884620|) .cse28))) |v_#memory_$Pointer$.base_61_const_1527225728|) (= (store |v_#memory_int_68_const_-458059116| |v_~#__CS_thread_lockedon~0.base_8_const_-898830650| (store .cse29 .cse30 (select .cse17 .cse30))) |v_#memory_int_67_const_-458059113|) (= |v_ULTIMATE.start_main_#t~mem74#1_2_const_653155892| (select (select |v_#memory_int_52_const_-458059085| |v_~#__CS_thread_allocated~0.base_4_const_1055191040|) |v_~#__CS_thread_allocated~0.offset_4_const_1454422302|)) (= |v_#memory_int_68_const_-458059116| (store |v_#memory_int_69_const_-458059115| |v_~#__CS_thread_lockedon~0.base_8_const_-898830650| (store .cse31 .cse32 (select .cse29 .cse32)))) (= |v_#memory_$Pointer$.base_49_const_1527225678| (store |v_#memory_$Pointer$.base_50_const_1527225760| |v_~#b1~0.base_4_const_299965258| (store .cse16 .cse33 (select (select |v_#memory_$Pointer$.base_49_const_1527225678| |v_~#b1~0.base_4_const_299965258|) .cse33)))) (= |v_#memory_$Pointer$.base_65_const_1527225732| (store |v_#memory_$Pointer$.base_66_const_1527225733| |v_~#__CS_thread_status~0.base_14_const_-1500884620| (store .cse34 .cse23 (select .cse35 .cse23)))) (= (store |v_#memory_$Pointer$.offset_63_const_1565750336| |v_~#__CS_thread_status~0.base_14_const_-1500884620| (store .cse2 .cse25 (select .cse36 .cse25))) |v_#memory_$Pointer$.offset_62_const_1565750339|) (= (store |v_#memory_$Pointer$.base_54_const_1527225764| |v_~#x~0.base_4_const_-402024745| (store .cse37 .cse22 (select (select |v_#memory_$Pointer$.base_53_const_1527225767| |v_~#x~0.base_4_const_-402024745|) .cse22))) |v_#memory_$Pointer$.base_53_const_1527225767|) (= |v_#memory_int_70_const_-458059025| (let ((.cse38 (store |v_#memory_int_77_const_-458059018| |v_~#__CS_thread_status~0.base_14_const_-1500884620| (let ((.cse41 (let ((.cse42 (let ((.cse43 (let ((.cse44 (let ((.cse45 (store (select |v_#memory_int_77_const_-458059018| |v_~#__CS_thread_status~0.base_14_const_-1500884620|) .cse3 (select (select |v_#memory_int_77_const_-458059018| |v_ULTIMATE.start_main_~#__CS_cp___CS_thread_status~0#1.base_12_const_1164317145|) (+ 3 |v_ULTIMATE.start_main_~#__CS_cp___CS_thread_status~0#1.offset_12_const_2137060507|))))) (store .cse45 .cse23 (select (select (store |v_#memory_int_77_const_-458059018| |v_~#__CS_thread_status~0.base_14_const_-1500884620| .cse45) |v_ULTIMATE.start_main_~#__CS_cp___CS_thread_status~0#1.base_12_const_1164317145|) (+ 6 |v_ULTIMATE.start_main_~#__CS_cp___CS_thread_status~0#1.offset_12_const_2137060507|)))))) (store .cse44 .cse20 (select (select (store |v_#memory_int_77_const_-458059018| |v_~#__CS_thread_status~0.base_14_const_-1500884620| .cse44) |v_ULTIMATE.start_main_~#__CS_cp___CS_thread_status~0#1.base_12_const_1164317145|) (+ 4 |v_ULTIMATE.start_main_~#__CS_cp___CS_thread_status~0#1.offset_12_const_2137060507|)))))) (store .cse43 .cse1 (select (select (store |v_#memory_int_77_const_-458059018| |v_~#__CS_thread_status~0.base_14_const_-1500884620| .cse43) |v_ULTIMATE.start_main_~#__CS_cp___CS_thread_status~0#1.base_12_const_1164317145|) (+ 7 |v_ULTIMATE.start_main_~#__CS_cp___CS_thread_status~0#1.offset_12_const_2137060507|)))))) (store .cse42 .cse25 (select (select (store |v_#memory_int_77_const_-458059018| |v_~#__CS_thread_status~0.base_14_const_-1500884620| .cse42) |v_ULTIMATE.start_main_~#__CS_cp___CS_thread_status~0#1.base_12_const_1164317145|) (+ 5 |v_ULTIMATE.start_main_~#__CS_cp___CS_thread_status~0#1.offset_12_const_2137060507|)))))) (store .cse41 .cse28 (select (select (store |v_#memory_int_77_const_-458059018| |v_~#__CS_thread_status~0.base_14_const_-1500884620| .cse41) |v_ULTIMATE.start_main_~#__CS_cp___CS_thread_status~0#1.base_12_const_1164317145|) (+ 8 |v_ULTIMATE.start_main_~#__CS_cp___CS_thread_status~0#1.offset_12_const_2137060507|))))))) (store .cse38 |v_~#__CS_thread_lockedon~0.base_8_const_-898830650| (store (select .cse38 |v_~#__CS_thread_lockedon~0.base_8_const_-898830650|) .cse39 (select .cse40 .cse39))))) (= (let ((.cse46 (store |v_#memory_$Pointer$.base_61_const_1527225728| |v_~#__CS_thread_lockedon~0.base_8_const_-898830650| (let ((.cse48 (let ((.cse50 (let ((.cse52 (let ((.cse54 (let ((.cse56 (store (select |v_#memory_$Pointer$.base_61_const_1527225728| |v_~#__CS_thread_lockedon~0.base_8_const_-898830650|) .cse39 (select (select |v_#memory_$Pointer$.base_61_const_1527225728| |v_ULTIMATE.start_main_~#__CS_cp___CS_thread_lockedon~0#1.base_12_const_407077506|) .cse59)))) (store .cse56 .cse57 (select (select (store |v_#memory_$Pointer$.base_61_const_1527225728| |v_~#__CS_thread_lockedon~0.base_8_const_-898830650| .cse56) |v_ULTIMATE.start_main_~#__CS_cp___CS_thread_lockedon~0#1.base_12_const_407077506|) .cse58))))) (store .cse54 .cse32 (select (select (store |v_#memory_$Pointer$.base_61_const_1527225728| |v_~#__CS_thread_lockedon~0.base_8_const_-898830650| .cse54) |v_ULTIMATE.start_main_~#__CS_cp___CS_thread_lockedon~0#1.base_12_const_407077506|) .cse55))))) (store .cse52 .cse30 (select (select (store |v_#memory_$Pointer$.base_61_const_1527225728| |v_~#__CS_thread_lockedon~0.base_8_const_-898830650| .cse52) |v_ULTIMATE.start_main_~#__CS_cp___CS_thread_lockedon~0#1.base_12_const_407077506|) .cse53))))) (store .cse50 .cse18 (select (select (store |v_#memory_$Pointer$.base_61_const_1527225728| |v_~#__CS_thread_lockedon~0.base_8_const_-898830650| .cse50) |v_ULTIMATE.start_main_~#__CS_cp___CS_thread_lockedon~0#1.base_12_const_407077506|) .cse51))))) (store .cse48 .cse14 (select (select (store |v_#memory_$Pointer$.base_61_const_1527225728| |v_~#__CS_thread_lockedon~0.base_8_const_-898830650| .cse48) |v_ULTIMATE.start_main_~#__CS_cp___CS_thread_lockedon~0#1.base_12_const_407077506|) .cse49)))))) (store .cse46 |v_~#x~0.base_4_const_-402024745| (store (select .cse46 |v_~#x~0.base_4_const_-402024745|) .cse47 (select .cse37 .cse47)))) |v_#memory_$Pointer$.base_54_const_1527225764|) (= |v_#memory_int_52_const_-458059085| (let ((.cse60 (let ((.cse61 (let ((.cse62 (let ((.cse63 (let ((.cse65 (let ((.cse69 (let ((.cse71 (store |v_#memory_int_65_const_-458059119| |v_~#x~0.base_4_const_-402024745| (let ((.cse73 (store (select |v_#memory_int_65_const_-458059119| |v_~#x~0.base_4_const_-402024745|) .cse47 (select (select |v_#memory_int_65_const_-458059119| |v_ULTIMATE.start_main_~#__CS_cp_x~0#1.base_8_const_1935253330|) (+ |v_ULTIMATE.start_main_~#__CS_cp_x~0#1.offset_8_const_952251088| 4))))) (store .cse73 .cse22 (select (select (store |v_#memory_int_65_const_-458059119| |v_~#x~0.base_4_const_-402024745| .cse73) |v_ULTIMATE.start_main_~#__CS_cp_x~0#1.base_8_const_1935253330|) (+ 8 |v_ULTIMATE.start_main_~#__CS_cp_x~0#1.offset_8_const_952251088|))))))) (store .cse71 |v_~#y~0.base_4_const_-598678024| (let ((.cse72 (store (select .cse71 |v_~#y~0.base_4_const_-598678024|) .cse5 (select (select .cse71 |v_ULTIMATE.start_main_~#__CS_cp_y~0#1.base_8_const_2064333363|) (+ |v_ULTIMATE.start_main_~#__CS_cp_y~0#1.offset_8_const_446818673| 4))))) (store .cse72 .cse12 (select (select (store .cse71 |v_~#y~0.base_4_const_-598678024| .cse72) |v_ULTIMATE.start_main_~#__CS_cp_y~0#1.base_8_const_2064333363|) (+ |v_ULTIMATE.start_main_~#__CS_cp_y~0#1.offset_8_const_446818673| 8)))))))) (store .cse69 |v_~#b1~0.base_4_const_299965258| (let ((.cse70 (store (select .cse69 |v_~#b1~0.base_4_const_299965258|) .cse15 (select (select .cse69 |v_ULTIMATE.start_main_~#__CS_cp_b1~0#1.base_8_const_1263505027|) (+ |v_ULTIMATE.start_main_~#__CS_cp_b1~0#1.offset_8_const_-344534591| 4))))) (store .cse70 .cse33 (select (select (store .cse69 |v_~#b1~0.base_4_const_299965258| .cse70) |v_ULTIMATE.start_main_~#__CS_cp_b1~0#1.base_8_const_1263505027|) (+ |v_ULTIMATE.start_main_~#__CS_cp_b1~0#1.offset_8_const_-344534591| 8)))))))) (store .cse65 |v_~#b2~0.base_4_const_103311979| (let ((.cse66 (store (select .cse65 |v_~#b2~0.base_4_const_103311979|) .cse68 (select (select .cse65 |v_ULTIMATE.start_main_~#__CS_cp_b2~0#1.base_8_const_1392585060|) (+ |v_ULTIMATE.start_main_~#__CS_cp_b2~0#1.offset_8_const_-850098078| 4))))) (store .cse66 .cse67 (select (select (store .cse65 |v_~#b2~0.base_4_const_103311979| .cse66) |v_ULTIMATE.start_main_~#__CS_cp_b2~0#1.base_8_const_1392585060|) (+ |v_ULTIMATE.start_main_~#__CS_cp_b2~0#1.offset_8_const_-850098078| 8)))))))) (store .cse63 |v_~#X~0.base_4_const_1591442167| (let ((.cse64 (store (select .cse63 |v_~#X~0.base_4_const_1591442167|) .cse10 (select (select .cse63 |v_ULTIMATE.start_main_~#__CS_cp_X~0#1.base_8_const_2099432306|) (+ |v_ULTIMATE.start_main_~#__CS_cp_X~0#1.offset_8_const_-49748240| 4))))) (store .cse64 .cse8 (select (select (store .cse63 |v_~#X~0.base_4_const_1591442167| .cse64) |v_ULTIMATE.start_main_~#__CS_cp_X~0#1.base_8_const_2099432306|) (+ |v_ULTIMATE.start_main_~#__CS_cp_X~0#1.offset_8_const_-49748240| 8)))))))) (store .cse62 |v_~#__CS_thread_born_round~0.base_4_const_1720302585| (store (select .cse62 |v_~#__CS_thread_born_round~0.base_4_const_1720302585|) |v_~#__CS_thread_born_round~0.offset_4_const_544850615| v_~__CS_round~0_21_const_-563051817))))) (store .cse61 |v_~#__CS_thread_status~0.base_14_const_-1500884620| (store (select .cse61 |v_~#__CS_thread_status~0.base_14_const_-1500884620|) |v_~#__CS_thread_status~0.offset_14_const_679055606| v_~__THREAD_RUNNING~0_4_const_278392745))))) (store .cse60 |v_~#__CS_thread_allocated~0.base_4_const_1055191040| (store (select .cse60 |v_~#__CS_thread_allocated~0.base_4_const_1055191040|) |v_~#__CS_thread_allocated~0.offset_4_const_1454422302| 1)))) (= (store |v_#memory_$Pointer$.base_48_const_1527225673| |v_~#b2~0.base_4_const_103311979| (store .cse74 .cse67 (select (select |v_#memory_$Pointer$.base_47_const_1527225672| |v_~#b2~0.base_4_const_103311979|) .cse67))) |v_#memory_$Pointer$.base_47_const_1527225672|) (= (store |v_#memory_$Pointer$.base_49_const_1527225678| |v_~#b2~0.base_4_const_103311979| (store (select |v_#memory_$Pointer$.base_49_const_1527225678| |v_~#b2~0.base_4_const_103311979|) .cse68 (select .cse74 .cse68))) |v_#memory_$Pointer$.base_48_const_1527225673|) (= (store |v_#memory_$Pointer$.offset_50_const_1565750370| |v_~#b1~0.base_4_const_299965258| (store .cse75 .cse33 (select (select |v_#memory_$Pointer$.offset_49_const_1565750280| |v_~#b1~0.base_4_const_299965258|) .cse33))) |v_#memory_$Pointer$.offset_49_const_1565750280|) (= v_~__CS_thread~0.base_13_const_227311360 (store v_~__CS_thread~0.base_14_const_227311361 0 |#funAddr~main_thread.base|)) (= (let ((.cse76 (store |v_#memory_$Pointer$.offset_61_const_1565750338| |v_~#__CS_thread_lockedon~0.base_8_const_-898830650| (let ((.cse77 (let ((.cse78 (let ((.cse79 (let ((.cse80 (let ((.cse81 (store (select |v_#memory_$Pointer$.offset_61_const_1565750338| |v_~#__CS_thread_lockedon~0.base_8_const_-898830650|) .cse39 (select (select |v_#memory_$Pointer$.offset_61_const_1565750338| |v_ULTIMATE.start_main_~#__CS_cp___CS_thread_lockedon~0#1.base_12_const_407077506|) .cse59)))) (store .cse81 .cse57 (select (select (store |v_#memory_$Pointer$.offset_61_const_1565750338| |v_~#__CS_thread_lockedon~0.base_8_const_-898830650| .cse81) |v_ULTIMATE.start_main_~#__CS_cp___CS_thread_lockedon~0#1.base_12_const_407077506|) .cse58))))) (store .cse80 .cse32 (select (select (store |v_#memory_$Pointer$.offset_61_const_1565750338| |v_~#__CS_thread_lockedon~0.base_8_const_-898830650| .cse80) |v_ULTIMATE.start_main_~#__CS_cp___CS_thread_lockedon~0#1.base_12_const_407077506|) .cse55))))) (store .cse79 .cse30 (select (select (store |v_#memory_$Pointer$.offset_61_const_1565750338| |v_~#__CS_thread_lockedon~0.base_8_const_-898830650| .cse79) |v_ULTIMATE.start_main_~#__CS_cp___CS_thread_lockedon~0#1.base_12_const_407077506|) .cse53))))) (store .cse78 .cse18 (select (select (store |v_#memory_$Pointer$.offset_61_const_1565750338| |v_~#__CS_thread_lockedon~0.base_8_const_-898830650| .cse78) |v_ULTIMATE.start_main_~#__CS_cp___CS_thread_lockedon~0#1.base_12_const_407077506|) .cse51))))) (store .cse77 .cse14 (select (select (store |v_#memory_$Pointer$.offset_61_const_1565750338| |v_~#__CS_thread_lockedon~0.base_8_const_-898830650| .cse77) |v_ULTIMATE.start_main_~#__CS_cp___CS_thread_lockedon~0#1.base_12_const_407077506|) .cse49)))))) (store .cse76 |v_~#x~0.base_4_const_-402024745| (store (select .cse76 |v_~#x~0.base_4_const_-402024745|) .cse47 (select .cse21 .cse47)))) |v_#memory_$Pointer$.offset_54_const_1565750374|) (= (store |v_#memory_$Pointer$.offset_51_const_1565750371| |v_~#b1~0.base_4_const_299965258| (store (select |v_#memory_$Pointer$.offset_51_const_1565750371| |v_~#b1~0.base_4_const_299965258|) .cse15 (select .cse75 .cse15))) |v_#memory_$Pointer$.offset_50_const_1565750370|) (= (store |v_#memory_$Pointer$.base_65_const_1527225732| |v_~#__CS_thread_status~0.base_14_const_-1500884620| (store .cse35 .cse20 (select .cse27 .cse20))) |v_#memory_$Pointer$.base_64_const_1527225735|) (= (store |v_#memory_$Pointer$.offset_62_const_1565750339| |v_~#__CS_thread_status~0.base_14_const_-1500884620| (store .cse36 .cse28 (select (select |v_#memory_$Pointer$.offset_61_const_1565750338| |v_~#__CS_thread_status~0.base_14_const_-1500884620|) .cse28))) |v_#memory_$Pointer$.offset_61_const_1565750338|) (= |v_#memory_int_69_const_-458059115| (store |v_#memory_int_70_const_-458059025| |v_~#__CS_thread_lockedon~0.base_8_const_-898830650| (store .cse40 .cse57 (select .cse31 .cse57)))) (= (store |v_#memory_$Pointer$.base_67_const_1527225738| |v_~#__CS_thread_status~0.base_14_const_-1500884620| (store (select |v_#memory_$Pointer$.base_67_const_1527225738| |v_~#__CS_thread_status~0.base_14_const_-1500884620|) .cse3 (select .cse34 .cse3))) |v_#memory_$Pointer$.base_66_const_1527225733|) (= v_~__CS_round~0_21_const_-563051817 0) (= (store |v_#memory_$Pointer$.offset_49_const_1565750280| |v_~#b2~0.base_4_const_103311979| (store (select |v_#memory_$Pointer$.offset_49_const_1565750280| |v_~#b2~0.base_4_const_103311979|) .cse68 (select .cse82 .cse68))) |v_#memory_$Pointer$.offset_48_const_1565750283|) (= (store |v_#memory_$Pointer$.offset_48_const_1565750283| |v_~#b2~0.base_4_const_103311979| (store .cse82 .cse67 (select (select |v_#memory_$Pointer$.offset_47_const_1565750282| |v_~#b2~0.base_4_const_103311979|) .cse67))) |v_#memory_$Pointer$.offset_47_const_1565750282|))))
(check-sat)
(exit)
